c uprop, v00.0, 
c reading from data/prog17.c.cnf
c done reading: 0
p cnf 150 596
-79 -84 0
-77 -79 0
77 79 84 0
-68 77 84 0
-68 -77 -84 0
68 77 -84 0
68 -77 84 0
-63 79 0
-61 -63 0
61 63 -79 0
-53 61 -79 0
-53 -61 79 0
53 61 79 0
53 -61 -79 0
-48 63 0
48 -63 0
-43 -63 0
43 63 0
-40 48 0
40 -48 0
-48 -81 0
48 81 0
40 -74 0
-40 74 0
-40 -58 0
40 58 0
74 -86 0
-74 86 0
-74 -88 0
74 88 0
86 -90 0
-86 90 0
-86 -92 0
86 92 0
77 -94 0
84 -94 0
-77 -84 94 0
-77 -84 -95 0
77 84 -95 0
-77 84 95 0
77 -84 95 0
-61 -77 97 0
-61 -94 97 0
-77 -94 97 0
61 77 -97 0
61 94 -97 0
77 94 -97 0
61 -97 -98 0
77 -97 -98 0
94 -97 -98 0
-61 97 98 0
-77 97 98 0
-94 97 98 0
-61 -77 -94 98 0
61 77 94 -98 0
-61 -97 100 0
61 -100 0
97 -100 0
61 97 -100 0
-100 -102 0
61 -100 -102 0
97 -100 -102 0
-61 100 102 0
-97 100 102 0
61 97 -102 0
-100 105 0
100 -105 0
-71 102 0
-71 84 0
71 -84 -102 0
-66 -84 -102 0
-66 84 102 0
66 84 -102 0
66 -84 102 0
56 -77 -105 0
56 -71 -105 0
56 -71 -77 0
-56 77 105 0
-56 71 105 0
-56 71 77 0
-51 -56 105 0
-51 -56 77 0
-51 -56 71 0
51 56 -105 0
51 56 -77 0
51 56 -71 0
51 -71 -77 -105 0
-51 71 77 105 0
46 -56 -61 0
-46 61 0
-46 56 0
-46 56 61 0
-38 -46 0
-38 -46 61 0
-38 -46 56 0
38 46 -61 0
38 46 -56 0
-38 56 61 0
37 -46 0
-37 46 0
-36 51 0
-36 84 0
36 -51 -84 0
-35 -51 -84 0
-35 51 84 0
35 -51 84 0
35 51 -84 0
34 -38 -77 0
34 -36 -38 0
34 -36 -77 0
-34 38 77 0
-34 36 38 0
-34 36 77 0
-33 -34 38 0
-33 -34 77 0
-33 -34 36 0
33 34 -38 0
33 34 -77 0
33 34 -36 0
33 -36 -38 -77 0
-33 36 38 77 0
32 -37 -61 0
32 -34 -37 0
32 -34 -61 0
-32 37 61 0
-32 34 37 0
-32 34 61 0
-31 -32 37 0
-31 -32 61 0
-31 -32 34 0
31 32 -37 0
31 32 -61 0
31 32 -34 0
31 -34 -37 -61 0
-31 34 37 61 0
30 -32 0
-30 32 0
33 -52 0
-52 84 0
-33 52 -84 0
-33 -47 -84 0
33 -47 84 0
-33 47 84 0
33 47 -84 0
-31 42 -77 0
-31 42 -52 0
42 -52 -77 0
31 -42 77 0
31 -42 52 0
-42 52 77 0
31 -39 -42 0
-39 -42 77 0
-39 -42 52 0
-31 39 42 0
39 42 -77 0
39 42 -52 0
-31 39 -52 -77 0
31 -39 52 77 0
-30 -61 0
-30 -42 0
-42 -61 0
-30 73 0
-61 73 0
-42 73 0
-30 -42 -61 73 0
30 42 61 -73 0
-84 -101 0
-95 -101 0
84 95 101 0
-29 84 95 0
-29 -84 -95 0
29 -84 95 0
29 84 -95 0
101 -104 0
-98 -104 0
98 -101 104 0
-28 98 -101 0
-28 -98 101 0
28 98 101 0
28 -98 -101 0
-27 104 0
-27 -66 0
27 66 -104 0
-26 66 -104 0
-26 -66 104 0
26 66 104 0
26 -66 -104 0
-25 27 0
-25 -35 0
25 -27 35 0
-24 -27 35 0
-24 27 -35 0
24 27 35 0
24 -27 -35 0
25 -83 0
-47 -83 0
-25 47 83 0
-25 47 -76 0
25 -47 -76 0
25 47 76 0
-25 -47 76 0
-60 83 0
-39 -60 0
39 60 -83 0
39 -70 -83 0
-39 -70 83 0
39 70 83 0
-39 70 -83 0
60 -65 0
-65 -73 0
-60 65 73 0
-55 -60 73 0
-55 60 -73 0
55 60 73 0
55 -60 -73 0
-50 65 0
50 -65 0
-45 -65 0
45 65 0
50 -106 0
-50 106 0
-50 -85 0
50 85 0
-78 106 0
78 -106 0
-62 -106 0
62 106 0
78 -107 0
-78 107 0
-78 -108 0
78 108 0
107 -109 0
-107 109 0
-107 -110 0
107 110 0
109 -111 0
-109 111 0
-109 -112 0
109 112 0
-113 -114 0
-114 -115 0
113 114 115 0
113 115 -116 0
-113 -115 -116 0
-113 115 116 0
113 -115 116 0
114 -118 0
-117 -118 0
-114 117 118 0
-114 117 -120 0
114 -117 -120 0
114 117 120 0
-114 -117 120 0
118 -122 0
-119 -122 0
-118 119 122 0
-118 119 -124 0
118 -119 -124 0
118 119 124 0
-118 -119 124 0
122 -126 0
-121 -126 0
121 -122 126 0
121 -122 -128 0
-121 122 -128 0
121 122 128 0
-121 -122 128 0
126 -129 0
-123 -129 0
123 -126 129 0
123 -126 -130 0
-123 126 -130 0
123 126 130 0
-123 -126 130 0
129 -131 0
-125 -131 0
125 -129 131 0
125 -129 -132 0
-125 129 -132 0
125 129 132 0
-125 -129 132 0
131 -133 0
-127 -133 0
127 -131 133 0
127 -131 -134 0
-127 131 -134 0
127 131 134 0
-127 -131 134 0
115 -135 0
113 -135 0
-113 -115 135 0
-113 -115 -136 0
113 115 -136 0
113 -115 136 0
-113 115 136 0
-115 -117 137 0
-117 -135 137 0
-115 -135 137 0
115 117 -137 0
117 135 -137 0
115 135 -137 0
117 -137 -138 0
115 -137 -138 0
135 -137 -138 0
-117 137 138 0
-115 137 138 0
-135 137 138 0
-115 -117 -135 138 0
115 117 135 -138 0
-117 -119 139 0
-119 -137 139 0
-117 -137 139 0
117 119 -139 0
119 137 -139 0
117 137 -139 0
119 -139 -140 0
117 -139 -140 0
137 -139 -140 0
-119 139 140 0
-117 139 140 0
-137 139 140 0
-117 -119 -137 140 0
117 119 137 -140 0
-119 -121 141 0
-121 -139 141 0
-119 -139 141 0
119 121 -141 0
121 139 -141 0
119 139 -141 0
121 -141 -142 0
119 -141 -142 0
139 -141 -142 0
-121 141 142 0
-119 141 142 0
-139 141 142 0
-119 -121 -139 142 0
119 121 139 -142 0
-121 -123 143 0
-123 -141 143 0
-121 -141 143 0
121 123 -143 0
123 141 -143 0
121 141 -143 0
-80 123 -143 0
-80 121 -143 0
-80 141 -143 0
80 -123 143 0
80 -121 143 0
80 -141 143 0
80 -121 -123 -141 0
-80 121 123 141 0
69 -123 -125 0
69 -125 -143 0
69 -123 -143 0
-69 123 125 0
-69 125 143 0
-69 123 143 0
-64 -69 125 0
-64 -69 123 0
-64 -69 143 0
64 69 -125 0
64 69 -123 0
64 69 -143 0
64 -123 -125 -143 0
-64 123 125 143 0
54 -125 -127 0
54 -69 -127 0
54 -69 -125 0
-54 125 127 0
-54 69 127 0
-54 69 125 0
-49 -54 127 0
-49 -54 125 0
-49 -54 69 0
49 54 -127 0
49 54 -125 0
49 54 -69 0
49 -69 -125 -127 0
-49 69 125 127 0
-44 127 0
-44 54 0
44 -54 -127 0
-41 -54 -127 0
-41 54 127 0
41 54 -127 0
41 -54 127 0
80 -82 0
-82 113 0
-80 82 -113 0
-75 -80 -113 0
-75 80 113 0
75 -80 113 0
75 80 -113 0
59 -64 -115 0
59 -64 -82 0
59 -82 -115 0
-59 64 115 0
-59 64 82 0
-59 82 115 0
-59 64 -87 0
-59 -87 115 0
-59 82 -87 0
59 -64 87 0
59 87 -115 0
59 -82 87 0
-64 -82 87 -115 0
64 82 -87 115 0
-49 89 -117 0
-49 -59 89 0
-59 89 -117 0
49 -89 117 0
49 59 -89 0
59 -89 117 0
49 -89 -91 0
-89 -91 117 0
59 -89 -91 0
-49 89 91 0
89 91 -117 0
-59 89 91 0
-49 -59 91 -117 0
49 59 -91 117 0
-41 93 -119 0
-41 -89 93 0
-89 93 -119 0
41 -93 119 0
41 89 -93 0
89 -93 119 0
-41 93 0
93 -119 0
-89 93 0
-41 -89 -119 0
-44 96 -121 0
-44 -93 96 0
-93 96 -121 0
44 -96 121 0
44 93 -96 0
93 -96 121 0
-44 96 0
96 -121 0
-93 96 0
-44 -93 -121 0
-99 123 0
96 -99 0
-96 99 -123 0
96 -123 0
-96 123 0
-103 125 0
99 -103 0
-99 103 -125 0
99 -125 0
-99 125 0
-103 -127 0
103 -127 0
-103 127 0
-113 -144 0
-136 -144 0
113 136 144 0
113 136 -145 0
-113 -136 -145 0
-113 136 145 0
113 -136 145 0
144 -146 0
-138 -146 0
138 -144 146 0
138 -144 -147 0
-138 144 -147 0
138 144 147 0
-138 -144 147 0
146 -148 0
-140 -148 0
140 -146 148 0
140 -146 -149 0
-140 146 -149 0
140 146 149 0
-140 -146 149 0
148 -150 0
-142 -150 0
142 -148 150 0
-72 142 -148 0
-72 -142 148 0
72 142 148 0
72 -142 -148 0
-67 150 0
-67 -75 0
67 75 -150 0
-57 75 -150 0
-57 -75 150 0
57 75 150 0
57 -75 -150 0
-23 67 0
-23 -87 0
23 -67 87 0
-22 -67 87 0
-22 67 -87 0
22 67 87 0
22 -67 -87 0
-21 23 0
-21 -91 0
21 -23 91 0
-20 -23 91 0
-20 23 -91 0
20 23 91 0
20 -23 -91 0
-19 21 0
19 -21 0
-18 -21 0
18 21 0
-17 19 0
17 -19 0
-16 -19 0
16 19 0
-15 17 0
15 -17 0
-14 -17 0
14 17 0
-13 15 0
13 -15 0
-12 -15 0
12 15 0
-11 13 0
11 -13 0
-10 -13 0
10 13 0
-9 11 0
9 -11 0
-8 -11 0
8 11 0
-7 84 0
-7 113 0
7 -84 -113 0
-84 -113 0
84 113 0
6 -95 -136 0
6 -7 -95 0
6 -7 -136 0
-6 95 136 0
-6 7 95 0
-6 7 136 0
-6 95 0
-6 136 0
-6 7 0
7 95 136 0
5 -98 -138 0
5 -6 -98 0
5 -6 -138 0
-5 98 138 0
-5 6 98 0
-5 6 138 0
-5 98 0
-5 138 0
-5 6 0
6 98 138 0
4 -66 -140 0
4 -5 -66 0
4 -5 -140 0
-4 66 140 0
-4 5 66 0
-4 5 140 0
-4 66 0
-4 140 0
-4 5 0
5 66 140 0
3 -35 -142 0
3 -4 -35 0
3 -4 -142 0
-3 35 142 0
-3 4 35 0
-3 4 142 0
3 -35 0
3 -142 0
3 -4 0
-4 -35 -142 0
2 -47 -75 0
2 -3 -47 0
2 -3 -75 0
-2 47 75 0
-2 3 47 0
-2 3 75 0
-2 47 0
-2 75 0
-2 3 0
3 47 75 0
1 -39 -87 0
1 -2 -39 0
1 -2 -87 0
-1 39 87 0
-1 2 39 0
-1 2 87 0
1 -39 0
1 -87 0
1 -2 0
-2 -39 -87 0
-73 -91 0
-1 -73 0
-1 -91 0
1 73 91 0
